0000000000000000
0000000000000000
0000000000000000
0000000000000000
0000001111111000
0000001111111000
0000000000001000
0000000000001000
0000001000001000
0000001000001000
0000001000001000
0000001000001000
0000001000001000
0000001000001000
0000000000000000
0000000000000000
